clay0204m.py
Ipopt 3.12.8: 
==> Warning: Treating 32 binary and 0 integer variables as continous.


******************************************************************************
This program contains Ipopt, a library for large-scale nonlinear optimization.
 Ipopt is released as open source code under the Eclipse Public License (EPL).
         For more information visit http://projects.coin-or.org/Ipopt
******************************************************************************

This is Ipopt version 3.12.8, running with linear solver ma27.

Number of nonzeros in equality constraint Jacobian...:       32
Number of nonzeros in inequality constraint Jacobian.:      240
Number of nonzeros in Lagrangian Hessian.............:        8

Total number of variables............................:       52
                     variables with only lower bounds:       12
                variables with lower and upper bounds:       40
                     variables with only upper bounds:        0
Total number of equality constraints.................:       10
Total number of inequality constraints...............:       80
        inequality constraints with only lower bounds:       24
   inequality constraints with lower and upper bounds:        0
        inequality constraints with only upper bounds:       56

iter    objective    inf_pr   inf_du lg(mu)  ||d||  lg(rg) alpha_du alpha_pr  ls
   0  2.2399978e+01 5.70e+01 3.23e+01  -1.0 0.00e+00    -  0.00e+00 0.00e+00   0
   1  7.5784183e+00 5.64e+01 3.22e+01  -1.0 9.99e+01    -  1.09e-02 1.53e-02f  1
   2  4.3644399e+00 5.40e+01 3.06e+01  -1.0 9.67e+01    -  4.73e-02 4.15e-02f  1
   3  4.4197160e+00 4.84e+01 3.29e+01  -1.0 8.86e+01    -  4.53e-02 1.07e-01f  1
   4  4.2092383e+00 8.66e+01 4.35e+01  -1.0 3.87e+01    -  1.64e-02 2.22e-01f  1
   5  4.5062906e+00 1.04e+02 3.07e+01  -1.0 2.33e+01    -  2.47e-01 2.01e-01f  1
   6  4.2355661e+00 9.04e+01 5.01e+01  -1.0 1.82e+01    -  1.11e-01 8.05e-01H  1
   7  4.7470318e+00 4.68e+01 3.83e+00  -1.0 5.87e+00    -  9.28e-01 5.63e-01h  1
   8  5.0016090e+00 5.51e+00 2.73e+00  -1.0 4.55e+00    -  7.13e-01 6.04e-01h  1
   9  5.8313264e+00 6.02e-03 7.89e+00  -1.0 4.80e+00    -  3.38e-01 6.53e-01h  1
iter    objective    inf_pr   inf_du lg(mu)  ||d||  lg(rg) alpha_du alpha_pr  ls
  10  7.3735448e+00 1.53e-03 5.49e+00  -1.0 3.01e+00    -  6.49e-01 7.46e-01h  1
  11  1.0191937e+01 2.22e-16 1.15e+01  -1.0 7.71e+00    -  6.95e-01 1.00e+00f  1
  12  1.0800476e+01 0.00e+00 1.54e+00  -1.0 1.13e+01    -  7.52e-01 1.00e+00h  1
  13  1.0799977e+01 2.22e-16 6.29e-05  -1.0 7.33e+00    -  1.00e+00 1.00e+00h  1
  14  3.0544830e-01 2.22e-16 7.65e-07  -2.5 4.49e-02    -  1.00e+00 1.00e+00f  1
  15  1.6223406e-02 1.11e-16 2.19e-08  -3.8 3.15e-02    -  1.00e+00 1.00e+00f  1
  16  1.7685076e-04 2.22e-16 2.94e-10  -5.7 7.05e-03    -  1.00e+00 1.00e+00f  1
  17 -2.2129362e-05 2.22e-16 3.97e-13  -8.6 7.71e-04    -  1.00e+00 1.00e+00h  1

Number of Iterations....: 17

                                   (scaled)                 (unscaled)
Objective...............:  -7.3764541384498786e-06   -2.2129362415349637e-05
Dual infeasibility......:   3.9702753158585266e-13    1.1910825947575580e-12
Constraint violation....:   2.2204460492503131e-16    2.2204460492503131e-16
Complementarity.........:   2.5552731428288733e-09    7.6658194284866206e-09
Overall NLP error.......:   2.5552731428288733e-09    7.6658194284866206e-09


Number of objective function evaluations             = 20
Number of objective gradient evaluations             = 18
Number of equality constraint evaluations            = 20
Number of inequality constraint evaluations          = 20
Number of equality constraint Jacobian evaluations   = 18
Number of inequality constraint Jacobian evaluations = 18
Number of Lagrangian Hessian evaluations             = 17
Total CPU secs in IPOPT (w/o function evaluations)   =      0.004
Total CPU secs in NLP function evaluations           =      0.000

EXIT: Optimal Solution Found.

Time elapsed: 0.127830028534